61
37
11
277
0
19
390
82
9
7
50
282
46
17
12
0
13
148
8
155
312
89
48
85
101
109
0
21
45
76
11
956
30
13
138
22
21
0
54
353
52
17
12
355
94
11
40
21
196
0
0
0
140
12
0
0
208
0
30
10
16
0
61
36
20
426
0
0
14
188
0
31
22
0
15
0
29
86
377
0
10
83
0
62
61
100
0
44
18
52
0
8
189
148
14
36
199
302
45
33
